
Gurobi 13.0.0 (mac64[arm]) logging started Sun Dec  7 08:30:34 2025

Set parameter LogFile to value "/Users/jjung404/PyProjects/qiga/data/steiner-opt/SP/se03_log.txt"
Set parameter OutputFlag to value 1
Gurobi Optimizer version 13.0.0 build v13.0.0rc1 (mac64[arm] - Darwin 24.6.0 24G325)

CPU model: Apple M3
Thread count: 8 physical cores, 8 logical processors, using up to 8 threads

Optimize a model with 59 rows, 63 columns and 180 nonzeros (Min)
Model fingerprint: 0xea664768
Model has 21 linear objective coefficients
Variable types: 42 continuous, 21 integer (21 binary)
Coefficient statistics:
  Matrix range     [1e+00, 3e+00]
  Objective range  [1e+00, 2e+00]
  Bounds range     [1e+00, 1e+00]
  RHS range        [1e+00, 3e+00]
Found heuristic solution: objective 15.0000000
Presolve time: 0.00s
Presolved: 59 rows, 63 columns, 180 nonzeros
Variable types: 42 continuous, 21 integer (21 binary)

Root relaxation: objective 8.000000e+00, 9 iterations, 0.00 seconds (0.00 work units)

    Nodes    |    Current Node    |     Objective Bounds      |     Work
 Expl Unexpl |  Obj  Depth IntInf | Incumbent    BestBd   Gap | It/Node Time

     0     0    8.00000    0    3   15.00000    8.00000  46.7%     -    0s
H    0     0                      12.0000000    8.00000  33.3%     -    0s
     0     0    8.00000    0    9   12.00000    8.00000  33.3%     -    0s
     0     0    9.00000    0    9   12.00000    9.00000  25.0%     -    0s
     0     0    9.00000    0   13   12.00000    9.00000  25.0%     -    0s
     0     0    9.00000    0   10   12.00000    9.00000  25.0%     -    0s
     0     0    9.33333    0    8   12.00000    9.33333  22.2%     -    0s
     0     0    9.41143    0   12   12.00000    9.41143  21.6%     -    0s
     0     0    9.59524    0   14   12.00000    9.59524  20.0%     -    0s
     0     0    9.61905    0   14   12.00000    9.61905  19.8%     -    0s
     0     0    9.78788    0   11   12.00000    9.78788  18.4%     -    0s
     0     0    9.85714    0   10   12.00000    9.85714  17.9%     -    0s
     0     0    9.90854    0   15   12.00000    9.90854  17.4%     -    0s
     0     0    9.90854    0   14   12.00000    9.90854  17.4%     -    0s
     0     0   10.00000    0   14   12.00000   10.00000  16.7%     -    0s
     0     0   10.00000    0   11   12.00000   10.00000  16.7%     -    0s
     0     0   10.00000    0   16   12.00000   10.00000  16.7%     -    0s
     0     0   10.00000    0   15   12.00000   10.00000  16.7%     -    0s
     0     0   10.00000    0   14   12.00000   10.00000  16.7%     -    0s
     0     0   10.00000    0    8   12.00000   10.00000  16.7%     -    0s
     0     0   10.00000    0    8   12.00000   10.00000  16.7%     -    0s
     0     0   10.00000    0   13   12.00000   10.00000  16.7%     -    0s
     0     0   10.00000    0    6   12.00000   10.00000  16.7%     -    0s
     0     0   10.00000    0    6   12.00000   10.00000  16.7%     -    0s
     0     0   10.00000    0    6   12.00000   10.00000  16.7%     -    0s
     0     0   10.00000    0    6   12.00000   10.00000  16.7%     -    0s
     0     2   10.00000    0    6   12.00000   10.00000  16.7%     -    0s

Cutting planes:
  Gomory: 1
  MIR: 6
  Flow cover: 11
  Network: 4

Explored 26 nodes (556 simplex iterations) in 0.02 seconds (0.01 work units)
Thread count was 8 (of 8 available processors)

Solution count 2: 12 15 

Optimal solution found (tolerance 1.00e-04)
Best objective 1.200000000000e+01, best bound 1.200000000000e+01, gap 0.0000%
